(set-logic QF_S)
(declare-fun var0 () String)
(assert (RegexIn var0 (RegexConcat (RegexPlus (RegexUnion (Str2Reg "0") (Str2Reg "11"))) (RegexConcat (RegexStar (RegexUnion (Str2Reg "22") (Str2Reg "33"))) (RegexConcat (RegexUnion (RegexPlus (Str2Reg "4")) (RegexPlus (Str2Reg "555"))) (RegexConcat (RegexPlus (RegexPlus (Str2Reg "6"))) (RegexConcat (RegexStar (RegexUnion (Str2Reg "777") (Str2Reg "8"))) (RegexConcat (RegexUnion (RegexStar (Str2Reg "9")) (RegexStar (Str2Reg "a"))) (RegexConcat (RegexStar (RegexStar (Str2Reg "b"))) (RegexConcat (RegexPlus (RegexStar (Str2Reg "c"))) (RegexConcat (RegexPlus (RegexStar (Str2Reg "dd"))) (RegexConcat (RegexPlus (RegexUnion (Str2Reg "e") (Str2Reg "fff"))) (RegexConcat (RegexUnion (RegexPlus (Str2Reg "g")) (RegexPlus (Str2Reg "hhh"))) (RegexConcat (RegexPlus (RegexUnion (Str2Reg "ii") (Str2Reg "jj"))) (RegexUnion (RegexUnion (Str2Reg "kk") (Str2Reg "l")) (RegexUnion (Str2Reg "mmm") (Str2Reg "n")))))))))))))))))
(check-sat)